nApps = 225
nRes = 9
nActs = 430
nNetworks = 6

assignmentToResources = [1,3,1,2,3,1,1,3,3,3,1,2,2,1,3,1,2,2,3,2,2,1,2,1,3,3,3,3,1,3,3,1,3,3,2,3,2,3,1,3,2,2,2,2,3,3,3,3,3,3,3,3,1,1,3,3,3,1,3,3,1,3,2,2,2,1,1,2,3,3,1,3,3,3,3,3,1,2,3,3,2,1,1,2,1,1,2,2,3,2,1,3,1,1,2,1,1,1,2,1,4,4,4,6,4,4,4,5,5,6,6,4,4,4,6,6,6,6,6,4,4,4,5,5,5,5,5,5,4,6,6,6,6,4,4,4,5,5,5,6,5,4,5,4,6,6,6,6,6,6,6,4,6,6,6,6,4,6,6,6,6,5,5,6,6,6,6,6,6,6,6,5,5,5,5,5,5,6,6,6,6,6,6,6,6,6,6,6,6,6,6,6,6,4,4,4,6,6,6,6,6,4,6,6,4,6,6,5,5,5,5,5,5,4,4,4,4,6,4,6,6,6,6,6,4,5,5,5,5,4,4,4,4,4,5,5,5,5,5,4,4,6,4,4,4,4,4,4,4,4,4,5,7,5,9,4,9,6,8,4,8,5,9,6,8,4,9,6,7,4,9,4,8,6,7,4,8,4,9,8,8,9,8,8,9,8,9,9,7,7,9,9,8,8,8,7,8,8,8,8,9,9,9,7,9,9,9,8,8,8,7,7,8,9,8,9,7,7,8,9,8,7,9,7,7,7,7,7,8,7,9,7,7,8,8,8,7,8,7,7,7,7,7,7,8,7,7,7,7,8,9,9,9,9,7,7,8,7,8,7,8,7,7,8,8,8,8,7,7,8,7,8,9,9,9,7,8,7,8,8,9,7,8,9,7,8,9,9,9,9,7,9,9,9,9,8,7,9,8,8,8,8,8,8,7,7,7,7,9,9,9,8,8,7,7,9,7,7,8,9,8,9,8,9,8,8,9,8,8,8];

processingTimes = [160,96,104,160,120,160,112,104,104,128,136,48,152,120,144,128,104,168,128,136,80,128,160,168,120,120,72,72,168,128,112,136,112,152,120,72,120,48,48,72,88,112,168,48,120,152,104,56,120,120,128,136,112,152,104,104,144,136,120,136,128,168,48,80,88,120,56,128,136,56,80,128,48,96,128,80,144,112,128,136,112,136,104,120,168,80,72,112,96,112,168,152,112,64,120,104,96,120,112,136,4,500,500,500,3,4,23,1000,1000,3,1000,500,4,8,5,4,3,500,4,4,4,4,3,4,1000,3,1000,4,3,4,4,8,8,8,8,4,8,3,3,500,4,3,3,8,3,3,3,1000,4,500,3,4,3,1000,4,6,8,3,3,1000,1000,3,3,3,4,4,4,12,1000,4,4,1000,3,4,4,6,3,4,4,500,3,3,8,8,5,5,500,4,4,4,4,4,3,3,500,3,4,3,4,500,3,3,3,3,3,4,4,3,4,4,3,3,3,4,200,200,200,3,3,3,3,4,4,4,500,4,1000,1000,4,4,4,3,3,4,4,3,4,4,1000,3,3,5,3,500,3,4,4,4,4,4,4,3,3,5,5,3,3,3,3,3,3,4,4,3,3,500,500,500,500,500,500,500,500,500,500,4,4,3,3,4,500,500,500,3,4,23,1000,1000,3,1000,500,4,8,5,4,3,500,4,4,4,4,3,4,1000,3,1000,4,3,4,4,8,8,8,8,4,8,3,3,500,4,3,3,8,3,3,3,1000,4,500,3,4,3,1000,4,6,8,3,3,1000,1000,3,3,3,4,4,4,12,1000,4,4,1000,3,4,4,6,3,4,4,500,3,3,8,8,5,5,500,4,4,4,4,4,3,3,500,3,4,3,4,500,3,3,3,3,3,4,4,3,4,4,3,3,3,4,200,200,200,3,3,3,3,4,4,4,500,4,1000,1000,4,4,4,3,3,4,4,3,4,4,1000,3,3,5,3,500,3,4,4,4,4,4,4];

periods = [100000,20000,10000,10000,10000,20000,10000,100000,20000,20000,10000,100000,10000,50000,20000,10000,100000,100000,10000,100000,2000,5000,10000,100000,10000,20000,20000,20000,100000,10000,10000,1000,20000,20000,20000,10000,1000,5000,10000,20000,20000,100000,10000,100000,100000,100000,10000,10000,100000,10000,10000,10000,20000,100000,5000,20000,20000,10000,10000,100000,20000,10000,20000,100000,2000,100000,2000,20000,10000,100000,100000,20000,100000,10000,100000,2000,10000,100000,100000,100000,20000,100000,100000,10000,20000,20000,100000,100000,10000,20000,100000,100000,100000,20000,5000,50000,10000,100000,10000,10000,100000,100000,100000,20000,10000,10000,10000,10000,10000,10000,10000,20000,20000,10000,100000,100000,20000,20000,20000,10000,10000,10000,100000,100000,100000,100000,10000,10000,50000,20000,20000,20000,20000,10000,10000,10000,100000,100000,100000,10000,2000,5000,10000,100000,10000,10000,10000,20000,20000,20000,20000,100000,10000,10000,10000,10000,1000,20000,20000,20000,20000,20000,20000,10000,5000,5000,5000,20000,20000,20000,20000,100000,100000,10000,10000,100000,100000,100000,100000,100000,100000,10000,10000,10000,100000,100000,10000,10000,10000,10000,10000,10000,10000,100000,100000,100000,5000,5000,20000,20000,20000,10000,100000,100000,20000,10000,10000,20000,100000,100000,2000,2000,2000,2000,2000,2000,2000,100000,100000,20000,20000,100000,100000,100000,10000,100000,100000,100000,100000,100000,100000,100000,100000,20000,100000,100000,100000,20000,20000,100000,100000,100000,20000,50000,10000,10000,100000,100000,100000,10000,10000,20000,20000,20000,20000,10000,10000,10000,10000,10000,10000,10000,10000,10000,10000,100000,100000,100000,100000,10000,10000,10000,10000,10000,10000,20000,20000,100000,100000,100000,100000,100000,20000,10000,10000,10000,10000,10000,10000,10000,20000,20000,10000,100000,100000,20000,20000,20000,10000,10000,10000,100000,100000,100000,100000,10000,10000,50000,20000,20000,20000,20000,10000,10000,10000,100000,100000,100000,10000,2000,5000,10000,100000,10000,10000,10000,20000,20000,20000,20000,100000,10000,10000,10000,10000,1000,20000,20000,20000,20000,20000,20000,10000,5000,5000,5000,20000,20000,20000,20000,100000,100000,10000,10000,100000,100000,100000,100000,100000,100000,10000,10000,10000,100000,100000,10000,10000,10000,10000,10000,10000,10000,100000,100000,100000,5000,5000,20000,20000,20000,10000,100000,100000,20000,10000,10000,20000,100000,100000,2000,2000,2000,2000,2000,2000,2000,100000,100000,20000,20000,100000,100000,100000,10000,100000,100000,100000,100000,100000,100000,100000,100000,20000,100000,100000,100000,20000,20000,100000,100000,100000,20000,50000,10000,10000,100000,100000,100000,10000,10000];

assignmentToClusters = [1,2,3,4,5,6,7,8,9,10,11,12,13,14,15,16,17,17,18,19,20,21,22,23,22,24,25,26,23,11,27,28,29,30,31,32,33,34,32,35,6,19,36,17,37,38,39,40,41,42,43,44,45,23,46,47,48,11,49,50,51,52,9,53,54,23,55,45,36,56,23,57,58,59,8,60,61,62,23,8,9,23,63,64,65,66,19,67,11,68,69,63,70,71,72,73,36,23,11,74,75,76,77,78,79,80,81,82,83,84,85,86,87,88,89,90,91,92,93,94,95,96,97,98,99,100,101,102,103,104,105,106,107,108,109,110,111,112,113,114,115,116,117,118,119,120,121,122,123,124,125,126,127,128,129,130,131,132,133,134,135,136,137,138,139,140,141,142,143,144,145,146,147,148,149,150,151,152,153,154,155,156,157,158,159,160,161,162,163,164,165,166,167,168,169,170,171,172,173,174,175,176,177,178,179,180,181,182,183,184,185,186,187,188,189,190,191,192,193,194,195,196,197,198,199,200,201,202,203,204,205,206,207,208,209,210,211,212,213,214,215,216,217,218,219,220,221,222,223,224,225,6,6,9,9,11,11,11,11,11,11,11,11,22,22,23,23,23,23,32,32,36,36,36,36,45,45,63,63,75,76,77,78,79,80,81,82,83,84,85,86,87,88,89,90,91,92,93,94,95,96,97,98,99,100,101,102,103,104,105,106,107,108,109,110,111,112,113,114,115,116,117,118,119,120,121,122,123,124,125,126,127,128,129,130,131,132,133,134,135,136,137,138,139,140,141,142,143,144,145,146,147,148,149,150,151,152,153,154,155,156,157,158,159,160,161,162,163,164,165,166,167,168,169,170,171,172,173,174,175,176,177,178,179,180,181,182,183,184,185,186,187,188,189,190,191,192,193,194,195,196,197,198,199,200,201,202,203,204,205,206,207,208,209,210,211,212,213,214,215,216,217,218,219,220,221,222,223,224,225];

precedenceAdjList = [[],[],[],[],[],[252],[],[79],[254],[],[],[],[],[],[],[],[43],[16],[],[41],[],[],[264],[53],[],[],[],[],[81],[256],[],[],[],[],[],[270],[],[],[],[],[],[],[272],[],[],[],[],[],[],[],[],[],[],[97],[],[],[],[],[],[],[],[],[80],[],[],[268],[],[276],[],[],[53],[],[],[],[7],[],[],[],[266],[],[],[70],[],[],[],[],[19],[],[262],[],[],[278],[],[],[],[],[274],[],[258,260],[],[],[],[],[],[],[],[],[],[],[],[],[],[],[],[],[],[],[],[],[],[],[],[],[],[],[],[],[],[],[],[],[],[],[],[],[],[],[],[],[],[],[],[],[],[],[],[],[],[],[],[],[],[],[],[],[],[],[],[],[],[],[],[],[],[],[],[],[],[],[],[],[],[],[],[],[],[],[],[],[],[],[],[],[],[],[],[],[],[],[],[],[],[],[],[],[],[],[],[],[],[],[],[],[],[],[],[],[],[],[],[],[],[],[],[],[],[],[],[],[],[],[],[],[],[],[],[],[],[],[],[],[],[],[],[],[],[],[],[],[],[],[],[],[],[],[],[],[],[],[],[],[40],[251],[62],[253],[10],[255],[29],[257],[57],[259],[98],[261],[24],[263],[23],[265],[78],[267],[38],[269],[96],[271],[68],[273],[52],[275],[82],[277],[100],[101],[102],[103],[104],[105],[106],[107],[108],[109],[110],[111],[112],[113],[114],[115],[116],[117],[118],[119],[120],[121],[122],[123],[124],[125],[126],[127],[128],[129],[130],[131],[132],[133],[134],[135],[136],[137],[138],[139],[140],[141],[142],[143],[144],[145],[146],[147],[148],[149],[150],[151],[152],[153],[154],[155],[156],[157],[158],[159],[160],[161],[162],[163],[164],[165],[166],[167],[168],[169],[170],[171],[172],[173],[174],[175],[176],[177],[178],[179],[180],[181],[182],[183],[184],[185],[186],[187],[188],[189],[190],[191],[192],[193],[194],[195],[196],[197],[198],[199],[200],[201],[202],[203],[204],[205],[206],[207],[208],[209],[210],[211],[212],[213],[214],[215],[216],[217],[218],[219],[220],[221],[222],[223],[224],[225],[226],[227],[228],[229],[230],[231],[232],[233],[234],[235],[236],[237],[238],[239],[240],[241],[242],[243],[244],[245],[246],[247],[248],[249],[250]];